c "83475.clq"
p edge 80 304
e 1 5
e 1 6
e 1 7
e 1 8
e 1 9
e 1 13
e 1 17
e 1 31
e 1 40
e 1 62
e 1 67
e 1 71
e 1 79
e 2 5
e 2 7
e 2 8
e 2 12
e 2 14
e 2 16
e 2 18
e 2 19
e 2 20
e 2 22
e 2 23
e 2 24
e 2 27
e 2 28
e 2 34
e 2 37
e 2 42
e 2 44
e 2 52
e 2 58
e 2 59
e 2 65
e 2 69
e 2 73
e 2 79
e 2 80
e 3 5
e 3 6
e 3 9
e 3 11
e 3 12
e 3 14
e 3 15
e 3 16
e 3 23
e 3 26
e 3 27
e 3 32
e 3 38
e 3 39
e 3 54
e 3 57
e 3 76
e 3 79
e 4 5
e 4 6
e 4 8
e 4 10
e 4 16
e 4 19
e 4 29
e 4 42
e 4 45
e 4 49
e 4 63
e 4 65
e 4 72
e 5 6
e 5 7
e 5 8
e 5 10
e 5 12
e 5 15
e 5 16
e 5 17
e 5 18
e 5 20
e 5 21
e 5 22
e 5 23
e 5 25
e 5 26
e 5 27
e 5 32
e 5 33
e 5 35
e 5 36
e 5 37
e 5 38
e 5 40
e 5 43
e 5 44
e 5 45
e 5 47
e 5 50
e 5 56
e 5 57
e 5 66
e 5 75
e 5 76
e 6 7
e 6 9
e 6 10
e 6 11
e 6 13
e 6 15
e 6 21
e 6 24
e 6 27
e 6 38
e 6 42
e 6 44
e 6 77
e 6 78
e 7 10
e 7 11
e 7 17
e 7 35
e 7 47
e 7 50
e 7 55
e 7 60
e 7 66
e 7 73
e 8 9
e 8 15
e 8 20
e 8 22
e 8 40
e 8 46
e 8 56
e 8 57
e 8 59
e 8 60
e 8 65
e 8 77
e 9 13
e 9 28
e 9 31
e 9 32
e 9 45
e 9 48
e 10 11
e 10 13
e 10 14
e 10 18
e 10 23
e 10 25
e 10 28
e 10 30
e 10 32
e 10 35
e 10 37
e 10 42
e 10 45
e 10 48
e 10 54
e 10 68
e 10 73
e 10 76
e 11 12
e 11 19
e 11 20
e 11 26
e 11 31
e 11 43
e 11 54
e 11 58
e 11 68
e 12 14
e 12 18
e 12 29
e 12 30
e 12 41
e 12 52
e 12 53
e 12 54
e 12 61
e 12 70
e 13 17
e 13 22
e 13 24
e 13 28
e 13 44
e 13 49
e 13 60
e 13 69
e 13 80
e 14 19
e 14 39
e 14 52
e 14 61
e 15 25
e 15 30
e 15 55
e 15 72
e 15 77
e 16 25
e 16 33
e 16 36
e 16 38
e 16 72
e 17 21
e 17 29
e 18 51
e 18 73
e 18 78
e 19 21
e 19 29
e 19 30
e 19 37
e 19 46
e 19 48
e 19 67
e 19 76
e 20 31
e 20 35
e 20 36
e 20 39
e 20 41
e 20 60
e 20 63
e 20 71
e 21 24
e 21 34
e 21 36
e 21 40
e 21 55
e 21 59
e 22 26
e 23 64
e 24 51
e 24 67
e 24 71
e 25 56
e 26 47
e 26 49
e 27 41
e 28 58
e 28 61
e 29 33
e 29 34
e 29 43
e 29 46
e 29 50
e 29 52
e 29 62
e 29 64
e 29 71
e 29 78
e 30 33
e 30 46
e 31 34
e 31 39
e 31 51
e 32 53
e 33 74
e 34 68
e 35 68
e 36 67
e 37 47
e 37 66
e 38 41
e 38 64
e 38 65
e 39 48
e 39 59
e 40 79
e 41 51
e 42 43
e 42 49
e 42 50
e 42 61
e 42 62
e 42 74
e 44 53
e 44 75
e 45 57
e 45 69
e 46 53
e 46 69
e 46 75
e 47 63
e 48 56
e 49 55
e 49 66
e 50 58
e 50 78
e 51 74
e 53 63
e 55 70
e 56 72
e 58 62
e 58 80
e 63 64
e 64 74
e 65 70
e 68 70
e 68 75
e 68 77
e 68 80
